
  32    4
  10   10   10   10

   0   0   0   0   0   1 2 
   8   0   1   1   1   2 8 3 
   2   0   5   5   4   3 24 12 4 
   4   0   3   6   5   1 5 
   4   0   4   2   6   1 6 
   3   1   4   0   3   2 31 7 
   1   5   4   0   5   2 17 9 
   5   0   7   4   2   1 9 
   6   6   7   4   0   1 10 
  10   0   5   5   5   1 11 
   8   3   6   5   0   3 30 23 13 
  10   0   5   9   5   3 31 30 16 
   6   5   2   6   0   1 14 
   8   4   5   0   4   1 15 
  10   0   4   3   5   1 16 
   4   0   3   2   5   1 18 
   7   4   3   0   4   1 18 
   4   2   0   3   7   2 29 19 
  10   3   3   3   0   2 28 20 
   3   8   3   3   0   1 21 
   1   5   2   1   0   1 22 
   1   3   0   4   4   1 25 
   9   3   5   5   0   1 25 
   2   5   0   4   3   1 25 
   2   0   6   6   4   1 26 
   8   0   4   2   3   1 27 
   2   5   4   0   6   1 32
   4   2   0   8   3   1 32
   8   0   4   1   2   1 32
   2   0   2   3   3   1 32
   7   0   3   5   3   1 32
   0   0   0   0   0   0 
